(set-info :smt-lib-version 2.6)
(set-logic UFNRA)
(set-info :source |
Generated by: Geoff Sutcliffe
Generated on: 2026-03-11
Generator: TPTPWorld
Application: Benchmarking automated theorem provers
Time limit: 120.0

These benchmarks are translations from the TPTP Library (Thousands of
Problems for Theorem Provers), see http://www.cs.miami.edu/~tptp/

The TPTP is maintained by Geoff Sutcliffe, and he contributed this
selection of benchmarks to SMT-LIB.  They were exported from the
v9.2.1 realease of TPTP.
|)
(set-info :category "industrial")
(set-info :status "unknown")
; SZS status Success
(declare-sort $$unsorted 0)
(declare-fun tptp.l4 () Real)
(declare-fun tptp.f5 (Real) Real)
(declare-fun tptp.l5 () Real)
(declare-fun tptp.f6 (Real) Real)
(declare-fun tptp.f0 (Real) Real)
(declare-fun tptp.l0 () Real)
(declare-fun tptp.f4 (Real) Real)
(declare-fun tptp.f2 (Real) Real)
(declare-fun tptp.l2 () Real)
(declare-fun tptp.a () Real)
(declare-fun tptp.f7 (Real) Real)
(declare-fun tptp.f1 (Real) Real)
(declare-fun tptp.l1 () Real)
(declare-fun tptp.l7 () Real)
(declare-fun tptp.l3 () Real)
(declare-fun tptp.f3 (Real) Real)
(declare-fun tptp.l6 () Real)
(assert (forall ((Epsilon Real)) (=> (< 0.0 Epsilon) (exists ((Delta Real)) (and (< 0.0 Delta) (forall ((X Real)) (let ((_let_1 (- (tptp.f0 X) tptp.l0))) (let ((_let_2 (>= _let_1 0.0))) (let ((_let_3 (- X tptp.a))) (let ((_let_4 (>= _let_3 0.0))) (=> (and (not (= X tptp.a)) (=> _let_4 (< _let_3 Delta)) (=> (not _let_4) (< (- _let_3) Delta))) (and (=> _let_2 (< _let_1 Epsilon)) (=> (not _let_2) (< (- _let_1) Epsilon))))))))))))))
(assert (forall ((Epsilon Real)) (=> (< 0.0 Epsilon) (exists ((Delta Real)) (and (< 0.0 Delta) (forall ((X Real)) (let ((_let_1 (- (tptp.f1 X) tptp.l1))) (let ((_let_2 (>= _let_1 0.0))) (let ((_let_3 (- X tptp.a))) (let ((_let_4 (>= _let_3 0.0))) (=> (and (not (= X tptp.a)) (=> _let_4 (< _let_3 Delta)) (=> (not _let_4) (< (- _let_3) Delta))) (and (=> _let_2 (< _let_1 Epsilon)) (=> (not _let_2) (< (- _let_1) Epsilon))))))))))))))
(assert (forall ((Epsilon Real)) (=> (< 0.0 Epsilon) (exists ((Delta Real)) (and (< 0.0 Delta) (forall ((X Real)) (let ((_let_1 (- (tptp.f2 X) tptp.l2))) (let ((_let_2 (>= _let_1 0.0))) (let ((_let_3 (- X tptp.a))) (let ((_let_4 (>= _let_3 0.0))) (=> (and (not (= X tptp.a)) (=> _let_4 (< _let_3 Delta)) (=> (not _let_4) (< (- _let_3) Delta))) (and (=> _let_2 (< _let_1 Epsilon)) (=> (not _let_2) (< (- _let_1) Epsilon))))))))))))))
(assert (forall ((Epsilon Real)) (=> (< 0.0 Epsilon) (exists ((Delta Real)) (and (< 0.0 Delta) (forall ((X Real)) (let ((_let_1 (- (tptp.f3 X) tptp.l3))) (let ((_let_2 (>= _let_1 0.0))) (let ((_let_3 (- X tptp.a))) (let ((_let_4 (>= _let_3 0.0))) (=> (and (not (= X tptp.a)) (=> _let_4 (< _let_3 Delta)) (=> (not _let_4) (< (- _let_3) Delta))) (and (=> _let_2 (< _let_1 Epsilon)) (=> (not _let_2) (< (- _let_1) Epsilon))))))))))))))
(assert (forall ((Epsilon Real)) (=> (< 0.0 Epsilon) (exists ((Delta Real)) (and (< 0.0 Delta) (forall ((X Real)) (let ((_let_1 (- (tptp.f4 X) tptp.l4))) (let ((_let_2 (>= _let_1 0.0))) (let ((_let_3 (- X tptp.a))) (let ((_let_4 (>= _let_3 0.0))) (=> (and (not (= X tptp.a)) (=> _let_4 (< _let_3 Delta)) (=> (not _let_4) (< (- _let_3) Delta))) (and (=> _let_2 (< _let_1 Epsilon)) (=> (not _let_2) (< (- _let_1) Epsilon))))))))))))))
(assert (forall ((Epsilon Real)) (=> (< 0.0 Epsilon) (exists ((Delta Real)) (and (< 0.0 Delta) (forall ((X Real)) (let ((_let_1 (- (tptp.f5 X) tptp.l5))) (let ((_let_2 (>= _let_1 0.0))) (let ((_let_3 (- X tptp.a))) (let ((_let_4 (>= _let_3 0.0))) (=> (and (not (= X tptp.a)) (=> _let_4 (< _let_3 Delta)) (=> (not _let_4) (< (- _let_3) Delta))) (and (=> _let_2 (< _let_1 Epsilon)) (=> (not _let_2) (< (- _let_1) Epsilon))))))))))))))
(assert (forall ((Epsilon Real)) (=> (< 0.0 Epsilon) (exists ((Delta Real)) (and (< 0.0 Delta) (forall ((X Real)) (let ((_let_1 (- (tptp.f6 X) tptp.l6))) (let ((_let_2 (>= _let_1 0.0))) (let ((_let_3 (- X tptp.a))) (let ((_let_4 (>= _let_3 0.0))) (=> (and (not (= X tptp.a)) (=> _let_4 (< _let_3 Delta)) (=> (not _let_4) (< (- _let_3) Delta))) (and (=> _let_2 (< _let_1 Epsilon)) (=> (not _let_2) (< (- _let_1) Epsilon))))))))))))))
(assert (forall ((Epsilon Real)) (=> (< 0.0 Epsilon) (exists ((Delta Real)) (and (< 0.0 Delta) (forall ((X Real)) (let ((_let_1 (- (tptp.f7 X) tptp.l7))) (let ((_let_2 (>= _let_1 0.0))) (let ((_let_3 (- X tptp.a))) (let ((_let_4 (>= _let_3 0.0))) (=> (and (not (= X tptp.a)) (=> _let_4 (< _let_3 Delta)) (=> (not _let_4) (< (- _let_3) Delta))) (and (=> _let_2 (< _let_1 Epsilon)) (=> (not _let_2) (< (- _let_1) Epsilon))))))))))))))
(assert (not (forall ((Epsilon Real)) (=> (< 0.0 Epsilon) (exists ((Delta Real)) (and (< 0.0 Delta) (forall ((X Real)) (let ((_let_1 (/ 61.0 28.0))) (let ((_let_2 (- (/ 58.0 40.0)))) (let ((_let_3 (/ 26.0 14.0))) (let ((_let_4 (/ 59.0 6.0))) (let ((_let_5 (- (/ 47.0 32.0)))) (let ((_let_6 (- (/ 76.0 30.0)))) (let ((_let_7 (- (/ 98.0 50.0)))) (let ((_let_8 (- (/ 41.0 81.0)))) (let ((_let_9 (/ 84.0 92.0))) (let ((_let_10 (/ 3.0 6.0))) (let ((_let_11 (/ 98.0 69.0))) (let ((_let_12 (/ 73.0 85.0))) (let ((_let_13 (/ 34.0 43.0))) (let ((_let_14 (- (/ 95.0 56.0)))) (let ((_let_15 (- (/ 68.0 22.0)))) (let ((_let_16 (/ 18.0 84.0))) (let ((_let_17 (- (/ 34.0 35.0)))) (let ((_let_18 (/ 57.0 29.0))) (let ((_let_19 (- (/ 11.0 59.0)))) (let ((_let_20 (/ 78.0 63.0))) (let ((_let_21 (- (/ 86.0 10.0)))) (let ((_let_22 (/ 52.0 48.0))) (let ((_let_23 (/ 42.0 3.0))) (let ((_let_24 (- (/ 57.0 38.0)))) (let ((_let_25 (/ 59.0 85.0))) (let ((_let_26 (/ 8.0 2.0))) (let ((_let_27 (/ 59.0 57.0))) (let ((_let_28 (/ 17.0 66.0))) (let ((_let_29 (/ 15.0 3.0))) (let ((_let_30 (- (/ 60.0 19.0)))) (let ((_let_31 (/ 43.0 97.0))) (let ((_let_32 (- (/ 34.0 97.0)))) (let ((_let_33 (/ 4.0 77.0))) (let ((_let_34 (- (/ 40.0 38.0)))) (let ((_let_35 (/ 72.0 38.0))) (let ((_let_36 (/ 63.0 69.0))) (let ((_let_37 (- (/ 61.0 99.0)))) (let ((_let_38 (/ 47.0 43.0))) (let ((_let_39 (/ 15.0 13.0))) (let ((_let_40 (- (/ 71.0 97.0)))) (let ((_let_41 (- (/ 24.0 67.0)))) (let ((_let_42 (- (/ 33.0 88.0)))) (let ((_let_43 (- (/ 82.0 88.0)))) (let ((_let_44 (/ 49.0 86.0))) (let ((_let_45 (/ 77.0 46.0))) (let ((_let_46 (- (/ 83.0 36.0)))) (let ((_let_47 (- (/ 17.0 12.0)))) (let ((_let_48 (/ 91.0 91.0))) (let ((_let_49 (- (/ 41.0 92.0)))) (let ((_let_50 (- (/ 63.0 45.0)))) (let ((_let_51 (- (/ 15.0 33.0)))) (let ((_let_52 (- (/ 45.0 44.0)))) (let ((_let_53 (/ 86.0 69.0))) (let ((_let_54 (- (/ 77.0 12.0)))) (let ((_let_55 (- (/ 85.0 87.0)))) (let ((_let_56 (/ 74.0 51.0))) (let ((_let_57 (- (/ 2.0 46.0)))) (let ((_let_58 (- (/ 43.0 93.0)))) (let ((_let_59 (/ 56.0 5.0))) (let ((_let_60 (- (/ 69.0 72.0)))) (let ((_let_61 (/ 29.0 81.0))) (let ((_let_62 (/ 79.0 77.0))) (let ((_let_63 (- (/ 10.0 78.0)))) (let ((_let_64 (- (/ 30.0 57.0)))) (let ((_let_65 (- (/ 59.0 66.0)))) (let ((_let_66 (/ 47.0 7.0))) (let ((_let_67 (- (/ 58.0 87.0)))) (let ((_let_68 (- (/ 1.0 70.0)))) (let ((_let_69 (- (/ 4.0 43.0)))) (let ((_let_70 (/ 92.0 83.0))) (let ((_let_71 (- (/ 3.0 73.0)))) (let ((_let_72 (- (/ 5.0 93.0)))) (let ((_let_73 (- (/ 69.0 45.0)))) (let ((_let_74 (/ 12.0 36.0))) (let ((_let_75 (/ 40.0 79.0))) (let ((_let_76 (/ 32.0 24.0))) (let ((_let_77 (- (/ 12.0 5.0)))) (let ((_let_78 (- (/ 13.0 42.0)))) (let ((_let_79 (- (/ 0.0 20.0)))) (let ((_let_80 (- (/ 18.0 96.0)))) (let ((_let_81 (/ 7.0 39.0))) (let ((_let_82 (- (/ 33.0 14.0)))) (let ((_let_83 (- (/ 52.0 88.0)))) (let ((_let_84 (- (/ 6.0 37.0)))) (let ((_let_85 (/ 63.0 84.0))) (let ((_let_86 (- (/ 23.0 95.0)))) (let ((_let_87 (/ 84.0 55.0))) (let ((_let_88 (/ 30.0 78.0))) (let ((_let_89 (/ 34.0 9.0))) (let ((_let_90 (- (/ 9.0 98.0)))) (let ((_let_91 (- (/ 57.0 87.0)))) (let ((_let_92 (- (/ 84.0 37.0)))) (let ((_let_93 (- (/ 1.0 53.0)))) (let ((_let_94 (- (/ 25.0 40.0)))) (let ((_let_95 (- (/ 71.0 13.0)))) (let ((_let_96 (- (/ 100.0 8.0)))) (let ((_let_97 (- (/ 41.0 99.0)))) (let ((_let_98 (/ 61.0 58.0))) (let ((_let_99 (- (/ 52.0 85.0)))) (let ((_let_100 (- (/ 97.0 25.0)))) (let ((_let_101 (/ 61.0 76.0))) (let ((_let_102 (- (/ 23.0 38.0)))) (let ((_let_103 (- (/ 32.0 28.0)))) (let ((_let_104 (/ 89.0 58.0))) (let ((_let_105 (- (/ 100.0 57.0)))) (let ((_let_106 (- (/ 14.0 6.0)))) (let ((_let_107 (- (/ 82.0 18.0)))) (let ((_let_108 (/ 76.0 75.0))) (let ((_let_109 (- (/ 79.0 46.0)))) (let ((_let_110 (/ 95.0 60.0))) (let ((_let_111 (- (/ 67.0 74.0)))) (let ((_let_112 (/ 33.0 30.0))) (let ((_let_113 (/ 43.0 26.0))) (let ((_let_114 (- (/ 83.0 100.0)))) (let ((_let_115 (- (/ 45.0 32.0)))) (let ((_let_116 (/ 83.0 23.0))) (let ((_let_117 (/ 67.0 99.0))) (let ((_let_118 (- (/ 12.0 84.0)))) (let ((_let_119 (- (/ 30.0 40.0)))) (let ((_let_120 (- (/ 19.0 27.0)))) (let ((_let_121 (- (/ 96.0 63.0)))) (let ((_let_122 (/ 61.0 5.0))) (let ((_let_123 (/ 14.0 81.0))) (let ((_let_124 (- (/ 20.0 53.0)))) (let ((_let_125 (/ 52.0 80.0))) (let ((_let_126 (tptp.f7 X))) (let ((_let_127 (tptp.f0 X))) (let ((_let_128 (tptp.f2 X))) (let ((_let_129 (tptp.f3 X))) (let ((_let_130 (tptp.f1 X))) (let ((_let_131 (tptp.f4 X))) (let ((_let_132 (tptp.f5 X))) (let ((_let_133 (tptp.f6 X))) (let ((_let_134 (- (+ (* _let_125 _let_133) (+ (* _let_124 _let_127) (+ (* _let_123 _let_128) (+ (* _let_122 _let_128) (+ (* _let_121 _let_127) (+ (* _let_120 _let_128) (+ (* _let_119 _let_133) (+ (* _let_118 _let_126) (+ (* _let_114 _let_130) (+ (* _let_117 _let_127) (+ (* _let_116 _let_132) (+ (* _let_115 _let_132) (+ (* _let_114 _let_132) (+ (* _let_113 _let_132) (+ (* _let_112 _let_133) (+ (* _let_111 _let_133) (+ (* _let_110 _let_133) (+ (* _let_109 _let_130) (+ (* _let_108 _let_129) (+ (* _let_107 _let_126) (+ (* _let_106 _let_127) (+ (* _let_105 _let_128) (+ (* _let_104 _let_127) (+ (* _let_103 _let_133) (+ (* _let_102 _let_129) (+ (* _let_101 _let_129) (+ (* _let_100 _let_126) (+ (* _let_99 _let_126) (+ (* _let_98 _let_131) (+ (* _let_97 _let_127) (+ (* _let_96 _let_129) (+ (* _let_95 _let_129) (+ (* 18.0 _let_133) (+ (* _let_94 _let_126) (+ (* _let_93 _let_131) (+ (* _let_92 _let_131) (+ (* _let_91 _let_127) (+ (* _let_90 _let_131) (+ (* _let_89 _let_129) (+ (* _let_88 _let_126) (+ (* _let_87 _let_128) (+ (* _let_86 _let_130) (+ (* _let_85 _let_133) (+ (* _let_84 _let_127) (+ (* _let_83 _let_126) (+ (* _let_82 _let_132) (+ (* _let_81 _let_128) (+ (* _let_80 _let_129) (+ (* _let_79 _let_131) (+ (* _let_78 _let_128) (+ (* _let_77 _let_128) (+ (* _let_76 _let_130) (+ (* _let_75 _let_126) (+ (* _let_74 _let_131) (+ (* _let_73 _let_126) (+ (* _let_72 _let_132) (+ (* _let_71 _let_127) (+ (* _let_70 _let_128) (+ (* _let_69 _let_128) (+ (* _let_68 _let_132) (+ (* _let_67 _let_127) (+ (* _let_66 _let_130) (+ (* _let_65 _let_133) (+ (* _let_64 _let_127) (+ (* _let_63 _let_127) (+ (* _let_62 _let_129) (+ (* _let_61 _let_131) (+ (* _let_60 _let_129) (+ (* _let_59 _let_129) (+ (* _let_58 _let_130) (+ (* _let_57 _let_128) (+ (* _let_56 _let_133) (+ (* _let_55 _let_131) (+ (* _let_54 _let_127) (+ (* _let_53 _let_132) (+ (* _let_52 _let_130) (+ (* _let_51 _let_126) (+ (* _let_50 _let_129) (+ (* _let_49 _let_133) (+ (* _let_48 _let_126) (+ (* _let_47 _let_127) (+ (* _let_46 _let_127) (+ (* _let_45 _let_133) (+ (* _let_44 _let_129) (+ (* _let_43 _let_128) (+ (* _let_42 _let_126) (+ (* _let_41 _let_129) (+ (* _let_40 _let_132) (+ (* _let_39 _let_132) (+ (* _let_38 _let_131) (+ (* _let_37 _let_127) (+ (* _let_36 _let_132) (+ (* _let_35 _let_131) (+ (* _let_34 _let_131) (+ (* _let_33 _let_126) (+ (* _let_32 _let_131) (+ (* _let_31 _let_131) (+ (* _let_30 _let_130) (+ (* _let_29 _let_130) (+ (* _let_28 _let_133) (+ (* _let_27 _let_127) (+ (* 54.0 _let_132) (+ (* _let_26 _let_132) (+ (* _let_25 _let_127) (+ (* _let_24 _let_126) (+ (* _let_23 _let_126) (+ (* _let_22 _let_127) (+ (* _let_21 _let_126) (+ (* _let_20 _let_130) (+ (* _let_19 _let_128) (+ (* _let_18 _let_129) (+ (* _let_17 _let_130) (+ (* _let_16 _let_128) (+ (* _let_15 _let_131) (+ (* _let_14 _let_133) (+ (* _let_13 _let_126) (+ (* _let_12 _let_128) (+ (* _let_11 _let_126) (+ (* _let_10 _let_126) (+ (* _let_9 _let_132) (+ (* _let_8 _let_131) (+ (* _let_7 _let_130) (+ (* _let_6 _let_127) (+ (* _let_5 _let_128) (+ (* _let_4 _let_129) (+ (* _let_3 _let_128) (+ (* _let_2 _let_127) (* _let_1 _let_126)))))))))))))))))))))))))))))))))))))))))))))))))))))))))))))))))))))))))))))))))))))))))))))))))))))))))))))))))))))))))))))))) (+ (* _let_125 tptp.l6) (+ (* _let_124 tptp.l0) (+ (* _let_123 tptp.l2) (+ (* _let_122 tptp.l2) (+ (* _let_121 tptp.l0) (+ (* _let_120 tptp.l2) (+ (* _let_119 tptp.l6) (+ (* _let_118 tptp.l7) (+ (* _let_114 tptp.l1) (+ (* _let_117 tptp.l0) (+ (* _let_116 tptp.l5) (+ (* _let_115 tptp.l5) (+ (* _let_114 tptp.l5) (+ (* _let_113 tptp.l5) (+ (* _let_112 tptp.l6) (+ (* _let_111 tptp.l6) (+ (* _let_110 tptp.l6) (+ (* _let_109 tptp.l1) (+ (* _let_108 tptp.l3) (+ (* _let_107 tptp.l7) (+ (* _let_106 tptp.l0) (+ (* _let_105 tptp.l2) (+ (* _let_104 tptp.l0) (+ (* _let_103 tptp.l6) (+ (* _let_102 tptp.l3) (+ (* _let_101 tptp.l3) (+ (* _let_100 tptp.l7) (+ (* _let_99 tptp.l7) (+ (* _let_98 tptp.l4) (+ (* _let_97 tptp.l0) (+ (* _let_96 tptp.l3) (+ (* _let_95 tptp.l3) (+ (* 18.0 tptp.l6) (+ (* _let_94 tptp.l7) (+ (* _let_93 tptp.l4) (+ (* _let_92 tptp.l4) (+ (* _let_91 tptp.l0) (+ (* _let_90 tptp.l4) (+ (* _let_89 tptp.l3) (+ (* _let_88 tptp.l7) (+ (* _let_87 tptp.l2) (+ (* _let_86 tptp.l1) (+ (* _let_85 tptp.l6) (+ (* _let_84 tptp.l0) (+ (* _let_83 tptp.l7) (+ (* _let_82 tptp.l5) (+ (* _let_81 tptp.l2) (+ (* _let_80 tptp.l3) (+ (* _let_79 tptp.l4) (+ (* _let_78 tptp.l2) (+ (* _let_77 tptp.l2) (+ (* _let_76 tptp.l1) (+ (* _let_75 tptp.l7) (+ (* _let_74 tptp.l4) (+ (* _let_73 tptp.l7) (+ (* _let_72 tptp.l5) (+ (* _let_71 tptp.l0) (+ (* _let_70 tptp.l2) (+ (* _let_69 tptp.l2) (+ (* _let_68 tptp.l5) (+ (* _let_67 tptp.l0) (+ (* _let_66 tptp.l1) (+ (* _let_65 tptp.l6) (+ (* _let_64 tptp.l0) (+ (* _let_63 tptp.l0) (+ (* _let_62 tptp.l3) (+ (* _let_61 tptp.l4) (+ (* _let_60 tptp.l3) (+ (* _let_59 tptp.l3) (+ (* _let_58 tptp.l1) (+ (* _let_57 tptp.l2) (+ (* _let_56 tptp.l6) (+ (* _let_55 tptp.l4) (+ (* _let_54 tptp.l0) (+ (* _let_53 tptp.l5) (+ (* _let_52 tptp.l1) (+ (* _let_51 tptp.l7) (+ (* _let_50 tptp.l3) (+ (* _let_49 tptp.l6) (+ (* _let_48 tptp.l7) (+ (* _let_47 tptp.l0) (+ (* _let_46 tptp.l0) (+ (* _let_45 tptp.l6) (+ (* _let_44 tptp.l3) (+ (* _let_43 tptp.l2) (+ (* _let_42 tptp.l7) (+ (* _let_41 tptp.l3) (+ (* _let_40 tptp.l5) (+ (* _let_39 tptp.l5) (+ (* _let_38 tptp.l4) (+ (* _let_37 tptp.l0) (+ (* _let_36 tptp.l5) (+ (* _let_35 tptp.l4) (+ (* _let_34 tptp.l4) (+ (* _let_33 tptp.l7) (+ (* _let_32 tptp.l4) (+ (* _let_31 tptp.l4) (+ (* _let_30 tptp.l1) (+ (* _let_29 tptp.l1) (+ (* _let_28 tptp.l6) (+ (* _let_27 tptp.l0) (+ (* 54.0 tptp.l5) (+ (* _let_26 tptp.l5) (+ (* _let_25 tptp.l0) (+ (* _let_24 tptp.l7) (+ (* _let_23 tptp.l7) (+ (* _let_22 tptp.l0) (+ (* _let_21 tptp.l7) (+ (* _let_20 tptp.l1) (+ (* _let_19 tptp.l2) (+ (* _let_18 tptp.l3) (+ (* _let_17 tptp.l1) (+ (* _let_16 tptp.l2) (+ (* _let_15 tptp.l4) (+ (* _let_14 tptp.l6) (+ (* _let_13 tptp.l7) (+ (* _let_12 tptp.l2) (+ (* _let_11 tptp.l7) (+ (* _let_10 tptp.l7) (+ (* _let_9 tptp.l5) (+ (* _let_8 tptp.l4) (+ (* _let_7 tptp.l1) (+ (* _let_6 tptp.l0) (+ (* _let_5 tptp.l2) (+ (* _let_4 tptp.l3) (+ (* _let_3 tptp.l2) (+ (* _let_2 tptp.l0) (* _let_1 tptp.l7))))))))))))))))))))))))))))))))))))))))))))))))))))))))))))))))))))))))))))))))))))))))))))))))))))))))))))))))))))))))))))))))))) (let ((_let_135 (>= _let_134 0.0))) (let ((_let_136 (- X tptp.a))) (let ((_let_137 (>= _let_136 0.0))) (=> (and (not (= X tptp.a)) (=> _let_137 (< _let_136 Delta)) (=> (not _let_137) (< (- _let_136) Delta))) (and (=> _let_135 (< _let_134 Epsilon)) (=> (not _let_135) (< (- _let_134) Epsilon))))))))))))))))))))))))))))))))))))))))))))))))))))))))))))))))))))))))))))))))))))))))))))))))))))))))))))))))))))))))))))))))))))))))))))))))))))
(check-sat)
